NAME : ftv35.1903.tour
COMMENT : Cost = 393_1903
COMMENT : Found by LKH [Keld Helsgaun] Tue Sep 12 07:40:06 2017
TYPE : TOUR
DIMENSION : 40
TOUR_SECTION
1
17
16
15
12
11
10
38
27
26
25
21
22
23
29
30
31
39
2
5
33
32
36
3
4
37
28
24
20
34
19
18
40
14
13
7
8
6
35
9
-1
EOF
